c This is QMaxSAT 2017 based on 14.07
c This is Glucose 3.0
c This is MiniSat 2.2.0
c WARNING: for repeatability, setting FPU to use double precision
c card = mrwto, comp = 0, pmodel = 0, narr = 3, mct = 24, verb = 0
cr firstCPXsol 0 0 0
c top = 81479
c |  Number of variables:    1352                                             |
c |  Number of clauses:      30274                                            |
c |  Weight of hard clauses: 81479                                            |
c |  Number of soft clauses: 1932                                             |
c |  Number of unit soft clauses: 0                                           |
c |  Maximum Cardinality (by unit): 296598       (0           )               |
c last restart ## conflicts  :  0 73 
o 1325 | cpuTime 0.00906 s
c Sum of weights = 98866
c A number of soft clauses remained = 644
c MRWTO encoding for Pseudo-Boolean Constraints
c sizeMax=1325
c No.0 Divisor=11	generated by pow1
c No.1 Divisor=12	generated by pow1
c No.2 Divisor=11	generated by pow1
c p0= 11	p1= 12	p2= 11	
c number of digits = 4
c linkingVar[0].size = 11, linkingVar[1].size = 12, linkingVar[2].size = 11, linkingVar[3].size = 1, 
c Pseudo-Boolean Constraints: 14187 variables and 132307 clauses
c Sum of weights = 98866
c A number of soft clauses remained = 644
c MRWTO encoding for Pseudo-Boolean Constraints
c sizeMax=1325
c No.0 Divisor=11	generated by pow1
c No.1 Divisor=12	generated by pow1
c No.2 Divisor=11	generated by pow1
c p0= 11	p1= 12	p2= 11	
c number of digits = 4
c linkingVar[0].size = 11, linkingVar[1].size = 12, linkingVar[2].size = 11, linkingVar[3].size = 1, 
c Pseudo-Boolean Constraints: 14187 variables and 132307 clauses
c Sum of weights = 98866
c A number of soft clauses remained = 644
c MRWTO encoding for Pseudo-Boolean Constraints
c sizeMax=1325
c No.0 Divisor=11	generated by pow1
c No.1 Divisor=12	generated by pow1
c No.2 Divisor=11	generated by pow1
c p0= 11	p1= 12	p2= 11	
c number of digits = 4
c linkingVar[0].size = 11, linkingVar[1].size = 12, linkingVar[2].size = 11, linkingVar[3].size = 1, 
c Pseudo-Boolean Constraints: 14187 variables and 132307 clauses
c last restart ## conflicts  :  160 1077 
o 1159 | cpuTime 0.895475 s
c last restart ## conflicts  :  80 863 
o 981 | cpuTime 1.23597 s
c last restart ## conflicts  :  438 880 
o 928 | cpuTime 23.336 s
c last restart ## conflicts  :  139 583 
o 924 | cpuTime 150.352 s
c last restart ## conflicts  :  227 624 
o 863 | cpuTime 227.04 s
c last restart ## conflicts  :  1721 992 
o 827 | cpuTime 624.457 s
s UNKNOWN
c Search is stopped by a limit (maybe time-limit)
cr positiVarArr: [ | 18(1->16) | 38(1->10) | 77(1->23) | 100(2->20) | 127(3->21) | 140(4->8) | 182(5->24) | 196(6->12) | 210(7->1) | 243(8->7) | 276(9->14) | 290(10->2) | 317(11->3) | 357(12->17) | 375(13->9) | 396(14->4) | 419(15->1) | 450(16->6) | 492(17->22) | 507(18->11) | 537(19->15) | 567(20->19) | 579(21->5) | 618(22->18) | 639(23->13) | 651(24->1) | ]
cr the 1-th chain: [ 1->16->6->12->17->22->18->11->3->21->5->24->1 ] (#non-depot=11) {#cumul.=12}
cr the 2-th chain: [ 1->10->2->20->19->15->1 ] (#non-depot=5) {#cumul.=17}
cr the 3-th chain: [ 1->23->13->9->14->4->8->7->1 ] (#non-depot=7) {#cumul.=24}
c Latest Answer = 0 by 7 loops
c restarts              : 48648
c conflicts             : 22942804       (6379 /sec)
c decisions             : 44709593       (0.00 % random) (12431 /sec)
c propagations          : 15573622088    (4330226 /sec)
c conflict literals     : 1560067896     (38.96 % deleted)
c Memory used           : 394.00 MB
c CPU time              : 3596.49 s
